N = 6;
M = 12;
Edge_Start = [1, 1, 2, 2, 3, 3, 4, 4, 5, 5, 6, 6];
Edge_End = [2, 4, 1, 3, 2, 6, 1, 5, 4, 6, 3, 5];
L = [11, 12, 11, 6, 6, 6, 12, 10, 10, 14, 6, 14];
T = [3, 2, 3, 1, 1, 6, 2, 2, 2, 4, 6, 4];
Lower_Bound = [0, 3, 4, 3, 4, 9];
Upper_Bound = [3, 5, 7, 9, 8, 13];
Start = 1;
End = 6;
Time = 13;
